letting n =  10
letting blocks =  [[1, 1], [1, 4], [1, 8], [1, 9], [2, 1], [2, 2], [2, 6], [2, 7], [2, 9], [2, 10], [3, 2], [3, 6], [3, 8], [4, 2], [4, 5], [4, 7], [4, 10], [5, 1], [5, 2], [5, 3], [5, 6], [5, 8], [5, 9], [6, 2], [6, 3], [6, 6], [7, 2], [7, 7], [7, 8], [8, 1], [8, 6], [8, 9], [9, 5], [9, 8], [9, 10], [10, 1], [10, 4], [10, 6], [10, 8], [10, 9]]
